c Random generated cnf formula, satisfiable: false
p cnf 10 50
10 -1 4 0
-3 -2 -6 0
-8 6 2 0
10 5 6 0
1 7 9 0
-8 -2 -9 0
8 3 1 0
-6 8 -2 0
4 6 5 0
-4 2 1 0
8 4 5 0
10 4 9 0
-8 4 -7 0
6 -5 -4 0
-10 -5 -9 0
7 1 -8 0
7 -1 5 0
-9 -8 10 0
-9 -3 6 0
-7 2 -5 0
-8 -2 1 0
8 -10 -9 0
-5 -4 9 0
-4 10 -1 0
-1 4 -9 0
9 4 2 0
-6 9 -4 0
-10 -1 3 0
-9 2 -6 0
2 -9 10 0
-8 4 2 0
-10 -3 -2 0
-3 5 4 0
-7 3 9 0
7 -6 4 0
7 -5 -8 0
-2 4 9 0
4 1 7 0
7 4 -1 0
10 2 -3 0
9 4 6 0
1 -2 6 0
-8 -3 4 0
8 7 5 0
7 -8 -2 0
-8 2 9 0
7 4 -9 0
2 5 -10 0
-1 -3 -9 0
8 -1 6 0
